17	4
22	32	25	26	
0	0	0	0	0	3	2	3	4	
7	3	8	1	4	2	14	17	
7	7	8	1	2	1	17	
4	9	7	8	5	3	5	9	11	
8	9	9	9	2	3	6	17	17	
225	7	10	2	4	2	7	10	
75	3	3	3	4	3	8	12	17	
225	1	7	7	5	3	13	15	17	
250	3	9	1	2	2	15	16	
150	2	10	8	9	2	14	17	
50	4	7	7	4	1	17	
175	8	3	2	5	3	17	17	17	
9	6	5	10	4	2	17	17	
10	8	6	3	5	3	15	17	17	
9	2	9	10	5	1	17	
4	6	5	10	1	3	17	17	17	
0	0	0	0	0	0	
